(set-logic QF_S)
(declare-const c6 String)
(declare-const c7 String)
(declare-const c8 String)
(declare-const c9 String)
(declare-const c10 String)
(assert (= c6 "f"))
(assert (= c7 "g"))
(assert (= c8 "h"))
(assert (= c9 "i"))
(assert (= c10 "j"))
(check-sat)
(get-model)